; benchmark generated from python API
(set-info :status unknown)
(declare-fun s () Int)
(define-funs-rec ( ( Tn_06 ((x!1 Int)) Int)
                   ( pn_06 ((x!1 Int)) Int)
                   ( T2_01 ((x!1 Int)) Int)
                   ( p2_01 ((x!1 Int)) Int))
                 ( ((_ pn_06 0) x!1)
                   (let ((a!1 (mod (- x!1 ((_ pn_06 0) (div x!1 s))) s)))
                     (ite (= x!1 0) 0 a!1))
                   (mod ((_ p2_01 0) x!1) 2)
                   (ite (= x!1 0) 0 (+ ((_ p2_01 0) (div x!1 2)) x!1))))
(assert
 (forall ((n Int) )(let ((?x406 ((_ Tn_06 0) n)))
(let ((?x370 ((_ T2_01 0) n)))
(let (($x379 (= ?x370 ?x406)))
(let (($x407 (>= n 0)))
(=> $x407 $x379))))))
)
(check-sat)
